p tw 20 29
e 0 5
e 0 8
e 0 11
e 1 12
e 2 3
e 2 6
e 2 15
e 2 16
e 2 18
e 2 19
e 3 9
e 3 14
e 4 11
e 4 16
e 5 10
e 5 17
e 6 8
e 7 14
e 8 9
e 8 10
e 8 19
e 9 12
e 10 14
e 10 15
e 10 19
e 11 14
e 12 17
e 13 18
e 16 17
